ej9/9-pulp.lp
\* 9 *\
Minimize
OBJ: c_0_1 + c_0_2 + c_0_3 + c_0_4 + c_0_5 + c_0_6 + c_0_7 + c_1_1 + c_1_2
 + c_1_3 + c_1_4 + c_1_5 + c_1_6 + c_1_7 + c_2_1 + c_2_2 + c_2_3 + c_2_4
 + c_2_5 + c_2_6 + c_2_7 + c_3_1 + c_3_2 + c_3_3 + c_3_4 + c_3_5 + c_3_6
 + c_3_7
Subject To
_C1: w_0_1 + w_1_1 + w_2_1 + w_3_1 = 1
_C10: pp_3 - w_0_2 <= 0
_C100: q_1_5 - 10000 w_1_5 <= 0
_C101: q_1_6 - 10000 w_1_6 <= 0
_C102: q_1_7 - 10000 w_1_7 <= 0
_C103: q_2_1 - 10000 w_2_1 <= 0
_C104: q_2_2 - 10000 w_2_2 <= 0
_C105: q_2_3 - 10000 w_2_3 <= 0
_C106: q_2_4 - 10000 w_2_4 <= 0
_C107: q_2_5 - 10000 w_2_5 <= 0
_C108: q_2_6 - 10000 w_2_6 <= 0
_C109: q_2_7 - 10000 w_2_7 <= 0
_C11: pp_4 - w_0_3 <= 0
_C110: q_3_1 - 10000 w_3_1 <= 0
_C111: q_3_2 - 10000 w_3_2 <= 0
_C112: q_3_3 - 10000 w_3_3 <= 0
_C113: q_3_4 - 10000 w_3_4 <= 0
_C114: q_3_5 - 10000 w_3_5 <= 0
_C115: q_3_6 - 10000 w_3_6 <= 0
_C116: q_3_7 - 10000 w_3_7 <= 0
_C117: - 200 h_0_1 + q_0_1 = 0
_C118: - 200 h_0_2 + q_0_2 = 0
_C119: - 200 h_0_3 + q_0_3 = 0
_C12: pp_5 - w_0_4 <= 0
_C120: - 200 h_0_4 + q_0_4 = 0
_C121: - 200 h_0_5 + q_0_5 = 0
_C122: - 200 h_0_6 + q_0_6 = 0
_C123: - 200 h_0_7 + q_0_7 = 0
_C124: - 450 h_1_1 + q_1_1 = 0
_C125: - 450 h_1_2 + q_1_2 = 0
_C126: - 450 h_1_3 + q_1_3 = 0
_C127: - 450 h_1_4 + q_1_4 = 0
_C128: - 450 h_1_5 + q_1_5 = 0
_C129: - 450 h_1_6 + q_1_6 = 0
_C13: pp_6 - w_0_5 <= 0
_C130: - 450 h_1_7 + q_1_7 = 0
_C131: - 390 h_2_1 + q_2_1 = 0
_C132: - 390 h_2_2 + q_2_2 = 0
_C133: - 390 h_2_3 + q_2_3 = 0
_C134: - 390 h_2_4 + q_2_4 = 0
_C135: - 390 h_2_5 + q_2_5 = 0
_C136: - 390 h_2_6 + q_2_6 = 0
_C137: - 390 h_2_7 + q_2_7 = 0
_C138: - 250 h_3_1 + q_3_1 = 0
_C139: - 250 h_3_2 + q_3_2 = 0
_C14: pp_7 - w_0_6 <= 0
_C140: - 250 h_3_3 + q_3_3 = 0
_C141: - 250 h_3_4 + q_3_4 = 0
_C142: - 250 h_3_5 + q_3_5 = 0
_C143: - 250 h_3_6 + q_3_6 = 0
_C144: - 250 h_3_7 + q_3_7 = 0
_C145: q_0_0 = 0
_C146: q_1_0 = 0
_C147: q_2_0 = 0
_C148: q_3_0 = 0
_C149: s_0_0 = 5000
_C15: pp_1 - w_1_1 <= 0
_C150: s_1_0 = 7000
_C151: s_2_0 = 9000
_C152: s_3_0 = 8000
_C153: s_0_7 >= 1750
_C154: s_1_7 >= 1750
_C155: s_2_7 >= 1750
_C156: s_3_7 >= 1750
_C157: - q_0_1 - s_0_0 + s_0_1 = -1500
_C158: - q_0_2 - s_0_1 + s_0_2 = -1700
_C159: - q_0_3 - s_0_2 + s_0_3 = -1900
_C16: pp_2 - w_1_2 <= 0
_C160: - q_0_4 - s_0_3 + s_0_4 = -1000
_C161: - q_0_5 - s_0_4 + s_0_5 = -2000
_C162: - q_0_6 - s_0_5 + s_0_6 = -500
_C163: - q_0_7 - s_0_6 + s_0_7 = -500
_C164: - q_1_1 - s_1_0 + s_1_1 = -4000
_C165: - q_1_2 - s_1_1 + s_1_2 = -500
_C166: - q_1_3 - s_1_2 + s_1_3 = -1000
_C167: - q_1_4 - s_1_3 + s_1_4 = -3000
_C168: - q_1_5 - s_1_4 + s_1_5 = -500
_C169: - q_1_6 - s_1_5 + s_1_6 = -1000
_C17: pp_3 - w_1_3 <= 0
_C170: - q_1_7 - s_1_6 + s_1_7 = -2000
_C171: - q_2_1 - s_2_0 + s_2_1 = -2000
_C172: - q_2_2 - s_2_1 + s_2_2 = -2000
_C173: - q_2_3 - s_2_2 + s_2_3 = -3000
_C174: - q_2_4 - s_2_3 + s_2_4 = -2000
_C175: - q_2_5 - s_2_4 + s_2_5 = -2000
_C176: - q_2_6 - s_2_5 + s_2_6 = -2000
_C177: - q_2_7 - s_2_6 + s_2_7 = -500
_C178: - q_3_1 - s_3_0 + s_3_1 = -3000
_C179: - q_3_2 - s_3_1 + s_3_2 = -2000
_C18: pp_4 - w_1_4 <= 0
_C180: - q_3_3 - s_3_2 + s_3_3 = -2000
_C181: - q_3_4 - s_3_3 + s_3_4 = -1000
_C182: - q_3_5 - s_3_4 + s_3_5 = -1000
_C183: - q_3_6 - s_3_5 + s_3_6 = -500
_C184: - q_3_7 - s_3_6 + s_3_7 = -500
_C185: c_0_1 - 1.5 s_0_1 = 0
_C186: c_0_2 - 1.5 s_0_2 = 0
_C187: c_0_3 - 1.5 s_0_3 = 0
_C188: c_0_4 - 1.5 s_0_4 = 0
_C189: c_0_5 - 1.5 s_0_5 = 0
_C19: pp_5 - w_1_5 <= 0
_C190: c_0_6 - 1.5 s_0_6 = 0
_C191: c_0_7 - 1.5 s_0_7 = 0
_C192: c_1_1 - 1.5 s_1_1 = 0
_C193: c_1_2 - 1.5 s_1_2 = 0
_C194: c_1_3 - 1.5 s_1_3 = 0
_C195: c_1_4 - 1.5 s_1_4 = 0
_C196: c_1_5 - 1.5 s_1_5 = 0
_C197: c_1_6 - 1.5 s_1_6 = 0
_C198: c_1_7 - 1.5 s_1_7 = 0
_C199: c_2_1 - 2.5 s_2_1 = 0
_C2: w_0_2 + w_1_2 + w_2_2 + w_3_2 = 1
_C20: pp_6 - w_1_6 <= 0
_C200: c_2_2 - 2.5 s_2_2 = 0
_C201: c_2_3 - 2.5 s_2_3 = 0
_C202: c_2_4 - 2.5 s_2_4 = 0
_C203: c_2_5 - 2.5 s_2_5 = 0
_C204: c_2_6 - 2.5 s_2_6 = 0
_C205: c_2_7 - 2.5 s_2_7 = 0
_C206: c_3_1 - 2.5 s_3_1 = 0
_C207: c_3_2 - 2.5 s_3_2 = 0
_C208: c_3_3 - 2.5 s_3_3 = 0
_C209: c_3_4 - 2.5 s_3_4 = 0
_C21: pp_7 - w_1_7 <= 0
_C210: c_3_5 - 2.5 s_3_5 = 0
_C211: c_3_6 - 2.5 s_3_6 = 0
_C212: c_3_7 - 2.5 s_3_7 = 0
_C213: c_0_0 = 0
_C214: c_1_0 = 0
_C215: c_2_0 = 0
_C216: c_3_0 = 0
_C217: w_2_0 = 1
_C22: pp_1 - w_0_0 - w_1_1 >= -1
_C23: pp_2 - w_0_1 - w_1_2 >= -1
_C24: pp_3 - w_0_2 - w_1_3 >= -1
_C25: pp_4 - w_0_3 - w_1_4 >= -1
_C26: pp_5 - w_0_4 - w_1_5 >= -1
_C27: pp_6 - w_0_5 - w_1_6 >= -1
_C28: pp_7 - w_0_6 - w_1_7 >= -1
_C29: h_0_1 - 24 w_0_1 = 0
_C3: w_0_3 + w_1_3 + w_2_3 + w_3_3 = 1
_C30: h_0_2 - 24 w_0_2 = 0
_C31: h_0_3 - 24 w_0_3 = 0
_C32: h_0_4 - 24 w_0_4 = 0
_C33: h_0_5 - 24 w_0_5 = 0
_C34: h_0_6 - 24 w_0_6 = 0
_C35: h_0_7 - 24 w_0_7 = 0
_C36: h_1_1 + 5 pp_1 - 24 w_1_1 = 0
_C37: h_1_2 + 5 pp_2 - 24 w_1_2 = 0
_C38: h_1_3 + 5 pp_3 - 24 w_1_3 = 0
_C39: h_1_4 + 5 pp_4 - 24 w_1_4 = 0
_C4: w_0_4 + w_1_4 + w_2_4 + w_3_4 = 1
_C40: h_1_5 + 5 pp_5 - 24 w_1_5 = 0
_C41: h_1_6 + 5 pp_6 - 24 w_1_6 = 0
_C42: h_1_7 + 5 pp_7 - 24 w_1_7 = 0
_C43: h_2_1 - 24 w_2_1 = 0
_C44: h_2_2 - 24 w_2_2 = 0
_C45: h_2_3 - 24 w_2_3 = 0
_C46: h_2_4 - 24 w_2_4 = 0
_C47: h_2_5 - 24 w_2_5 = 0
_C48: h_2_6 - 24 w_2_6 = 0
_C49: h_2_7 - 24 w_2_7 = 0
_C5: w_0_5 + w_1_5 + w_2_5 + w_3_5 = 1
_C50: h_3_1 - 24 w_3_1 = 0
_C51: h_3_2 - 24 w_3_2 = 0
_C52: h_3_3 - 24 w_3_3 = 0
_C53: h_3_4 - 24 w_3_4 = 0
_C54: h_3_5 - 24 w_3_5 = 0
_C55: h_3_6 - 24 w_3_6 = 0
_C56: h_3_7 - 24 w_3_7 = 0
_C57: h_0_0 = 0
_C58: h_1_0 = 0
_C59: h_2_0 = 0
_C6: w_0_6 + w_1_6 + w_2_6 + w_3_6 = 1
_C60: h_3_0 = 0
_C61: q_0_1 - w_0_1 >= 0
_C62: q_0_2 - w_0_2 >= 0
_C63: q_0_3 - w_0_3 >= 0
_C64: q_0_4 - w_0_4 >= 0
_C65: q_0_5 - w_0_5 >= 0
_C66: q_0_6 - w_0_6 >= 0
_C67: q_0_7 - w_0_7 >= 0
_C68: q_1_1 - w_1_1 >= 0
_C69: q_1_2 - w_1_2 >= 0
_C7: w_0_7 + w_1_7 + w_2_7 + w_3_7 = 1
_C70: q_1_3 - w_1_3 >= 0
_C71: q_1_4 - w_1_4 >= 0
_C72: q_1_5 - w_1_5 >= 0
_C73: q_1_6 - w_1_6 >= 0
_C74: q_1_7 - w_1_7 >= 0
_C75: q_2_1 - w_2_1 >= 0
_C76: q_2_2 - w_2_2 >= 0
_C77: q_2_3 - w_2_3 >= 0
_C78: q_2_4 - w_2_4 >= 0
_C79: q_2_5 - w_2_5 >= 0
_C8: pp_1 - w_0_0 <= 0
_C80: q_2_6 - w_2_6 >= 0
_C81: q_2_7 - w_2_7 >= 0
_C82: q_3_1 - w_3_1 >= 0
_C83: q_3_2 - w_3_2 >= 0
_C84: q_3_3 - w_3_3 >= 0
_C85: q_3_4 - w_3_4 >= 0
_C86: q_3_5 - w_3_5 >= 0
_C87: q_3_6 - w_3_6 >= 0
_C88: q_3_7 - w_3_7 >= 0
_C89: q_0_1 - 10000 w_0_1 <= 0
_C9: pp_2 - w_0_1 <= 0
_C90: q_0_2 - 10000 w_0_2 <= 0
_C91: q_0_3 - 10000 w_0_3 <= 0
_C92: q_0_4 - 10000 w_0_4 <= 0
_C93: q_0_5 - 10000 w_0_5 <= 0
_C94: q_0_6 - 10000 w_0_6 <= 0
_C95: q_0_7 - 10000 w_0_7 <= 0
_C96: q_1_1 - 10000 w_1_1 <= 0
_C97: q_1_2 - 10000 w_1_2 <= 0
_C98: q_1_3 - 10000 w_1_3 <= 0
_C99: q_1_4 - 10000 w_1_4 <= 0
Bounds
0 <= q_0_0
0 <= q_0_1
0 <= q_0_2
0 <= q_0_3
0 <= q_0_4
0 <= q_0_5
0 <= q_0_6
0 <= q_0_7
0 <= q_1_0
0 <= q_1_1
0 <= q_1_2
0 <= q_1_3
0 <= q_1_4
0 <= q_1_5
0 <= q_1_6
0 <= q_1_7
0 <= q_2_0
0 <= q_2_1
0 <= q_2_2
0 <= q_2_3
0 <= q_2_4
0 <= q_2_5
0 <= q_2_6
0 <= q_2_7
0 <= q_3_0
0 <= q_3_1
0 <= q_3_2
0 <= q_3_3
0 <= q_3_4
0 <= q_3_5
0 <= q_3_6
0 <= q_3_7
0 <= s_0_0
0 <= s_0_1
0 <= s_0_2
0 <= s_0_3
0 <= s_0_4
0 <= s_0_5
0 <= s_0_6
0 <= s_0_7
0 <= s_1_0
0 <= s_1_1
0 <= s_1_2
0 <= s_1_3
0 <= s_1_4
0 <= s_1_5
0 <= s_1_6
0 <= s_1_7
0 <= s_2_0
0 <= s_2_1
0 <= s_2_2
0 <= s_2_3
0 <= s_2_4
0 <= s_2_5
0 <= s_2_6
0 <= s_2_7
0 <= s_3_0
0 <= s_3_1
0 <= s_3_2
0 <= s_3_3
0 <= s_3_4
0 <= s_3_5
0 <= s_3_6
0 <= s_3_7
Generals
q_0_0
q_0_1
q_0_2
q_0_3
q_0_4
q_0_5
q_0_6
q_0_7
q_1_0
q_1_1
q_1_2
q_1_3
q_1_4
q_1_5
q_1_6
q_1_7
q_2_0
q_2_1
q_2_2
q_2_3
q_2_4
q_2_5
q_2_6
q_2_7
q_3_0
q_3_1
q_3_2
q_3_3
q_3_4
q_3_5
q_3_6
q_3_7
s_0_0
s_0_1
s_0_2
s_0_3
s_0_4
s_0_5
s_0_6
s_0_7
s_1_0
s_1_1
s_1_2
s_1_3
s_1_4
s_1_5
s_1_6
s_1_7
s_2_0
s_2_1
s_2_2
s_2_3
s_2_4
s_2_5
s_2_6
s_2_7
s_3_0
s_3_1
s_3_2
s_3_3
s_3_4
s_3_5
s_3_6
s_3_7
Binaries
pp_1
pp_2
pp_3
pp_4
pp_5
pp_6
pp_7
w_0_0
w_0_1
w_0_2
w_0_3
w_0_4
w_0_5
w_0_6
w_0_7
w_1_1
w_1_2
w_1_3
w_1_4
w_1_5
w_1_6
w_1_7
w_2_0
w_2_1
w_2_2
w_2_3
w_2_4
w_2_5
w_2_6
w_2_7
w_3_1
w_3_2
w_3_3
w_3_4
w_3_5
w_3_6
w_3_7
End
