ej9/9-pulp.sol
Problem:    
Rows:       217
Columns:    165 (101 integer, 37 binary)
Non-zeros:  469
Status:     INTEGER OPTIMAL
Objective:  OBJ = 312725 (MINimum)

   No.   Row name        Activity     Lower bound   Upper bound
------ ------------    ------------- ------------- -------------
     1 _C1                         1             1             = 
     2 _C10                        0                           0 
     3 _C100                       0                           0 
     4 _C101                       0                           0 
     5 _C102                       0                           0 
     6 _C103                       0                           0 
     7 _C104                       0                           0 
     8 _C105                       0                           0 
     9 _C106                       0                           0 
    10 _C107                    -640                           0 
    11 _C108                       0                           0 
    12 _C109                       0                           0 
    13 _C11                        0                           0 
    14 _C110                       0                           0 
    15 _C111                       0                           0 
    16 _C112                       0                           0 
    17 _C113                   -4000                           0 
    18 _C114                       0                           0 
    19 _C115                       0                           0 
    20 _C116                       0                           0 
    21 _C117                       0             0             = 
    22 _C118                       0             0             = 
    23 _C119                       0             0             = 
    24 _C12                        0                           0 
    25 _C120                       0             0             = 
    26 _C121                       0             0             = 
    27 _C122                       0             0             = 
    28 _C123                       0             0             = 
    29 _C124                       0             0             = 
    30 _C125                       0             0             = 
    31 _C126                       0             0             = 
    32 _C127                       0             0             = 
    33 _C128                       0             0             = 
    34 _C129                       0             0             = 
    35 _C13                        0                           0 
    36 _C130                       0             0             = 
    37 _C131                       0             0             = 
    38 _C132                       0             0             = 
    39 _C133                       0             0             = 
    40 _C134                       0             0             = 
    41 _C135                       0             0             = 
    42 _C136                       0             0             = 
    43 _C137                       0             0             = 
    44 _C138                       0             0             = 
    45 _C139                       0             0             = 
    46 _C14                       -1                           0 
    47 _C140                       0             0             = 
    48 _C141                       0             0             = 
    49 _C142                       0             0             = 
    50 _C143                       0             0             = 
    51 _C144                       0             0             = 
    52 _C145                       0             0             = 
    53 _C146                       0             0             = 
    54 _C147                       0             0             = 
    55 _C148                       0             0             = 
    56 _C149                    5000          5000             = 
    57 _C15                        0                           0 
    58 _C150                    7000          7000             = 
    59 _C151                    9000          9000             = 
    60 _C152                    8000          8000             = 
    61 _C153                   15100          1750               
    62 _C154                    3550          1750               
    63 _C155                    4860          1750               
    64 _C156                    4000          1750               
    65 _C157                   -1500         -1500             = 
    66 _C158                   -1700         -1700             = 
    67 _C159                   -1900         -1900             = 
    68 _C16                        0                           0 
    69 _C160                   -1000         -1000             = 
    70 _C161                   -2000         -2000             = 
    71 _C162                    -500          -500             = 
    72 _C163                    -500          -500             = 
    73 _C164                   -4000         -4000             = 
    74 _C165                    -500          -500             = 
    75 _C166                   -1000         -1000             = 
    76 _C167                   -3000         -3000             = 
    77 _C168                    -500          -500             = 
    78 _C169                   -1000         -1000             = 
    79 _C17                        0                           0 
    80 _C170                   -2000         -2000             = 
    81 _C171                   -2000         -2000             = 
    82 _C172                   -2000         -2000             = 
    83 _C173                   -3000         -3000             = 
    84 _C174                   -2000         -2000             = 
    85 _C175                   -2000         -2000             = 
    86 _C176                   -2000         -2000             = 
    87 _C177                    -500          -500             = 
    88 _C178                   -3000         -3000             = 
    89 _C179                   -2000         -2000             = 
    90 _C18                        0                           0 
    91 _C180                   -2000         -2000             = 
    92 _C181                   -1000         -1000             = 
    93 _C182                   -1000         -1000             = 
    94 _C183                    -500          -500             = 
    95 _C184                    -500          -500             = 
    96 _C185                       0             0             = 
    97 _C186                       0             0             = 
    98 _C187                       0             0             = 
    99 _C188                       0             0             = 
   100 _C189                       0             0             = 
   101 _C19                        0                           0 
   102 _C190                       0             0             = 
   103 _C191                       0             0             = 
   104 _C192                       0             0             = 
   105 _C193                       0             0             = 
   106 _C194                       0             0             = 
   107 _C195                       0             0             = 
   108 _C196                       0             0             = 
   109 _C197                       0             0             = 
   110 _C198                       0             0             = 
   111 _C199                       0             0             = 
   112 _C2                         1             1             = 
   113 _C20                        0                           0 
   114 _C200                       0             0             = 
   115 _C201                       0             0             = 
   116 _C202                       0             0             = 
   117 _C203                       0             0             = 
   118 _C204                       0             0             = 
   119 _C205                       0             0             = 
   120 _C206                       0             0             = 
   121 _C207                       0             0             = 
   122 _C208                       0             0             = 
   123 _C209                       0             0             = 
   124 _C21                        0                           0 
   125 _C210                       0             0             = 
   126 _C211                       0             0             = 
   127 _C212                       0             0             = 
   128 _C213                       0             0             = 
   129 _C214                       0             0             = 
   130 _C215                       0             0             = 
   131 _C216                       0             0             = 
   132 _C217                       1             1             = 
   133 _C22                        0            -1               
   134 _C23                       -1            -1               
   135 _C24                       -1            -1               
   136 _C25                        0            -1               
   137 _C26                        0            -1               
   138 _C27                        0            -1               
   139 _C28                       -1            -1               
   140 _C29                        0             0             = 
   141 _C3                         1             1             = 
   142 _C30                        0             0             = 
   143 _C31                        0             0             = 
   144 _C32                        0             0             = 
   145 _C33                        0             0             = 
   146 _C34                        0             0             = 
   147 _C35                        0             0             = 
   148 _C36                        0             0             = 
   149 _C37                        0             0             = 
   150 _C38                        0             0             = 
   151 _C39                        0             0             = 
   152 _C4                         1             1             = 
   153 _C40                        0             0             = 
   154 _C41                        0             0             = 
   155 _C42                        0             0             = 
   156 _C43                        0             0             = 
   157 _C44                        0             0             = 
   158 _C45                        0             0             = 
   159 _C46                        0             0             = 
   160 _C47                        0             0             = 
   161 _C48                        0             0             = 
   162 _C49                        0             0             = 
   163 _C5                         1             1             = 
   164 _C50                        0             0             = 
   165 _C51                        0             0             = 
   166 _C52                        0             0             = 
   167 _C53                        0             0             = 
   168 _C54                        0             0             = 
   169 _C55                        0             0             = 
   170 _C56                        0             0             = 
   171 _C57                        0             0             = 
   172 _C58                        0             0             = 
   173 _C59                        0             0             = 
   174 _C6                         1             1             = 
   175 _C60                        0             0             = 
   176 _C61                     4799             0               
   177 _C62                     4799             0               
   178 _C63                        0             0               
   179 _C64                        0             0               
   180 _C65                        0             0               
   181 _C66                     4799             0               
   182 _C67                     4799             0               
   183 _C68                        0             0               
   184 _C69                        0             0               
   185 _C7                         1             1             = 
   186 _C70                     8549             0               
   187 _C71                        0             0               
   188 _C72                        0             0               
   189 _C73                        0             0               
   190 _C74                        0             0               
   191 _C75                        0             0               
   192 _C76                        0             0               
   193 _C77                        0             0               
   194 _C78                        0             0               
   195 _C79                     9359             0               
   196 _C8                         0                           0 
   197 _C80                        0             0               
   198 _C81                        0             0               
   199 _C82                        0             0               
   200 _C83                        0             0               
   201 _C84                        0             0               
   202 _C85                     5999             0               
   203 _C86                        0             0               
   204 _C87                        0             0               
   205 _C88                        0             0               
   206 _C89                    -5200                           0 
   207 _C9                        -1                           0 
   208 _C90                    -5200                           0 
   209 _C91                        0                           0 
   210 _C92                        0                           0 
   211 _C93                        0                           0 
   212 _C94                    -5200                           0 
   213 _C95                    -5200                           0 
   214 _C96                        0                           0 
   215 _C97                        0                           0 
   216 _C98                    -1450                           0 
   217 _C99                        0                           0 

   No. Column name       Activity     Lower bound   Upper bound
------ ------------    ------------- ------------- -------------
     1 c_0_1                   12450             0               
     2 c_0_2                   17100             0               
     3 c_0_3                   14250             0               
     4 c_0_4                   12750             0               
     5 c_0_5                    9750             0               
     6 c_0_6                   16200             0               
     7 c_0_7                   22650             0               
     8 c_1_1                    4500             0               
     9 c_1_2                    3750             0               
    10 c_1_3                   15075             0               
    11 c_1_4                   10575             0               
    12 c_1_5                    9825             0               
    13 c_1_6                    8325             0               
    14 c_1_7                    5325             0               
    15 c_2_1                   17500             0               
    16 c_2_2                   12500             0               
    17 c_2_3                    5000             0               
    18 c_2_4                       0             0               
    19 c_2_5                   18400             0               
    20 c_2_6                   13400             0               
    21 c_2_7                   12150             0               
    22 c_3_1                   12500             0               
    23 c_3_2                    7500             0               
    24 c_3_3                    2500             0               
    25 c_3_4                   15000             0               
    26 c_3_5                   12500             0               
    27 c_3_6                   11250             0               
    28 c_3_7                   10000             0               
    29 w_0_1        *              1             0             1 
    30 w_1_1        *              0             0             1 
    31 w_2_1        *              0             0             1 
    32 w_3_1        *              0             0             1 
    33 pp_3         *              1             0             1 
    34 w_0_2        *              1             0             1 
    35 q_1_5        *              0             0               
    36 w_1_5        *              0             0             1 
    37 q_1_6        *              0             0               
    38 w_1_6        *              0             0             1 
    39 q_1_7        *              0             0               
    40 w_1_7        *              0             0             1 
    41 q_2_1        *              0             0               
    42 q_2_2        *              0             0               
    43 w_2_2        *              0             0             1 
    44 q_2_3        *              0             0               
    45 w_2_3        *              0             0             1 
    46 q_2_4        *              0             0               
    47 w_2_4        *              0             0             1 
    48 q_2_5        *           9360             0               
    49 w_2_5        *              1             0             1 
    50 q_2_6        *              0             0               
    51 w_2_6        *              0             0             1 
    52 q_2_7        *              0             0               
    53 w_2_7        *              0             0             1 
    54 pp_4         *              0             0             1 
    55 w_0_3        *              0             0             1 
    56 q_3_1        *              0             0               
    57 q_3_2        *              0             0               
    58 w_3_2        *              0             0             1 
    59 q_3_3        *              0             0               
    60 w_3_3        *              0             0             1 
    61 q_3_4        *           6000             0               
    62 w_3_4        *              1             0             1 
    63 q_3_5        *              0             0               
    64 w_3_5        *              0             0             1 
    65 q_3_6        *              0             0               
    66 w_3_6        *              0             0             1 
    67 q_3_7        *              0             0               
    68 w_3_7        *              0             0             1 
    69 h_0_1                      24             0               
    70 q_0_1        *           4800             0               
    71 h_0_2                      24             0               
    72 q_0_2        *           4800             0               
    73 h_0_3                       0             0               
    74 q_0_3        *              0             0               
    75 pp_5         *              0             0             1 
    76 w_0_4        *              0             0             1 
    77 h_0_4                       0             0               
    78 q_0_4        *              0             0               
    79 h_0_5                       0             0               
    80 q_0_5        *              0             0               
    81 h_0_6                      24             0               
    82 q_0_6        *           4800             0               
    83 h_0_7                      24             0               
    84 q_0_7        *           4800             0               
    85 h_1_1                       0             0               
    86 q_1_1        *              0             0               
    87 h_1_2                       0             0               
    88 q_1_2        *              0             0               
    89 h_1_3                      19             0               
    90 q_1_3        *           8550             0               
    91 h_1_4                       0             0               
    92 q_1_4        *              0             0               
    93 h_1_5                       0             0               
    94 h_1_6                       0             0               
    95 pp_6         *              0             0             1 
    96 w_0_5        *              0             0             1 
    97 h_1_7                       0             0               
    98 h_2_1                       0             0               
    99 h_2_2                       0             0               
   100 h_2_3                       0             0               
   101 h_2_4                       0             0               
   102 h_2_5                      24             0               
   103 h_2_6                       0             0               
   104 h_2_7                       0             0               
   105 h_3_1                       0             0               
   106 h_3_2                       0             0               
   107 pp_7         *              0             0             1 
   108 w_0_6        *              1             0             1 
   109 h_3_3                       0             0               
   110 h_3_4                      24             0               
   111 h_3_5                       0             0               
   112 h_3_6                       0             0               
   113 h_3_7                       0             0               
   114 q_0_0        *              0             0               
   115 q_1_0        *              0             0               
   116 q_2_0        *              0             0               
   117 q_3_0        *              0             0               
   118 s_0_0        *           5000             0               
   119 pp_1         *              0             0             1 
   120 s_1_0        *           7000             0               
   121 s_2_0        *           9000             0               
   122 s_3_0        *           8000             0               
   123 s_0_7        *          15100             0               
   124 s_1_7        *           3550             0               
   125 s_2_7        *           4860             0               
   126 s_3_7        *           4000             0               
   127 s_0_1        *           8300             0               
   128 s_0_2        *          11400             0               
   129 s_0_3        *           9500             0               
   130 pp_2         *              0             0             1 
   131 w_1_2        *              0             0             1 
   132 s_0_4        *           8500             0               
   133 s_0_5        *           6500             0               
   134 s_0_6        *          10800             0               
   135 s_1_1        *           3000             0               
   136 s_1_2        *           2500             0               
   137 s_1_3        *          10050             0               
   138 s_1_4        *           7050             0               
   139 s_1_5        *           6550             0               
   140 s_1_6        *           5550             0               
   141 w_1_3        *              1             0             1 
   142 s_2_1        *           7000             0               
   143 s_2_2        *           5000             0               
   144 s_2_3        *           2000             0               
   145 s_2_4        *              0             0               
   146 s_2_5        *           7360             0               
   147 s_2_6        *           5360             0               
   148 s_3_1        *           5000             0               
   149 s_3_2        *           3000             0               
   150 w_1_4        *              0             0             1 
   151 s_3_3        *           1000             0               
   152 s_3_4        *           6000             0               
   153 s_3_5        *           5000             0               
   154 s_3_6        *           4500             0               
   155 c_0_0                       0             0               
   156 c_1_0                       0             0               
   157 c_2_0                       0             0               
   158 c_3_0                       0             0               
   159 w_2_0        *              1             0             1 
   160 w_0_0        *              0             0             1 
   161 w_0_7        *              1             0             1 
   162 h_0_0                       0             0               
   163 h_1_0                       0             0               
   164 h_2_0                       0             0               
   165 h_3_0                       0             0               

Integer feasibility conditions:

KKT.PE: max.abs.err = 0.00e+00 on row 0
        max.rel.err = 0.00e+00 on row 0
        High quality

KKT.PB: max.abs.err = 0.00e+00 on row 0
        max.rel.err = 0.00e+00 on row 0
        High quality

End of output
